(set-logic QF_NRA)
(set-info :source |Benchmarks generated from hycomp (https://es-static.fbk.eu/tools/hycomp/). BMC instances of non-linear hybrid automata taken from: Alessandro Cimatti, Sergio Mover, Stefano Tonetta, A quantifier-free SMT encoding of non-linear hybrid automata, FMCAD 2012 and Alessandro Cimatti, Sergio Mover, Stefano Tonetta, Quantier-free encoding of invariants for Hybrid Systems, Formal Methods in System Design. This instance solves a BMC problem of depth 1 and uses the quantifier free encoding with equivalences encoding. Contacts: Sergio Mover (mover@fbk.eu), Stefano Tonetta (tonettas@fbk.eu), Alessandro Cimatti (cimatti@fbk.eu).|)
(set-info :smt-lib-version 2.0)
(set-info :category "industrial")
(set-info :status unsat)
;; MathSAT API call trace
;; generated on Mon Mar 19 10:46:44 2012
(declare-fun b.counter.3__AT1 () Bool)
(declare-fun b.delta__AT1 () Real)
(declare-fun b.EVENT.0__AT1 () Bool)
(declare-fun b.x__AT1 () Real)
(declare-fun b.EVENT.1__AT1 () Bool)
(declare-fun b.event_is_timed__AT0 () Bool)
(declare-fun b.y__AT0 () Real)
(declare-fun b.counter.0__AT0 () Bool)
(declare-fun b.counter.1__AT0 () Bool)
(declare-fun b.EVENT.0__AT0 () Bool)
(declare-fun b.bool_atom__AT0 () Bool)
(declare-fun b.counter.2__AT0 () Bool)
(declare-fun b.speed_y__AT1 () Real)
(declare-fun b.event_is_timed__AT1 () Bool)
(declare-fun b.x__AT0 () Real)
(declare-fun b.time__AT1 () Real)
(declare-fun b.bool_atom__AT1 () Bool)
(declare-fun b.g__AT0 () Real)
(declare-fun b.EVENT.1__AT0 () Bool)
(declare-fun b.time__AT0 () Real)
(declare-fun b.delta__AT0 () Real)
(declare-fun b.counter.3__AT0 () Bool)
(declare-fun b.speed_y__AT0 () Real)
(declare-fun b.y__AT1 () Real)
(declare-fun b.counter.0__AT1 () Bool)
(declare-fun b.counter.1__AT1 () Bool)
(declare-fun b.counter.2__AT1 () Bool)
(assert (let ((.def_72 (* (- 1.0) b.g__AT0)))
(let ((.def_75 (* (/ 1 2) .def_72)))
(let ((.def_88 (* 2.0 .def_75)))
(let ((.def_269 (* .def_88 b.delta__AT1)))
(let ((.def_270 (+ b.speed_y__AT1 .def_269)))
(let ((.def_274 (<= .def_270 0.0 )))
(let ((.def_273 (<= b.speed_y__AT1 0.0 )))
(let ((.def_275 (and .def_273 .def_274)))
(let ((.def_271 (<= 0.0 .def_270)))
(let ((.def_268 (<= 0.0 b.speed_y__AT1)))
(let ((.def_272 (and .def_268 .def_271)))
(let ((.def_276 (or .def_272 .def_275)))
(let ((.def_259 (* b.speed_y__AT1 b.delta__AT1)))
(let ((.def_257 (* b.delta__AT1 b.delta__AT1)))
(let ((.def_258 (* .def_75 .def_257)))
(let ((.def_260 (+ .def_258 .def_259)))
(let ((.def_242 (* (- 1.0) b.x__AT1)))
(let ((.def_243 (* b.x__AT1 .def_242)))
(let ((.def_261 (* (- 1.0) .def_243)))
(let ((.def_264 (+ .def_261 .def_260)))
(let ((.def_265 (+ b.y__AT1 .def_264)))
(let ((.def_266 (<= 0.0 .def_265)))
(let ((.def_244 (<= .def_243 b.y__AT1)))
(let ((.def_267 (and .def_244 .def_266)))
(let ((.def_277 (and .def_267 .def_276)))
(let ((.def_64 (<= b.g__AT0 10.0 )))
(let ((.def_63 (<= 8.0 b.g__AT0)))
(let ((.def_65 (and .def_63 .def_64)))
(let ((.def_278 (and .def_65 .def_277)))
(let ((.def_34 (not b.counter.0__AT0)))
(let ((.def_32 (not b.counter.1__AT0)))
(let ((.def_35 (and .def_32 .def_34)))
(let ((.def_252 (or .def_35 b.counter.3__AT0)))
(let ((.def_249 (or .def_35 b.counter.2__AT0)))
(let ((.def_37 (not b.counter.2__AT0)))
(let ((.def_248 (or .def_32 .def_37)))
(let ((.def_250 (and .def_248 .def_249)))
(let ((.def_40 (not b.counter.3__AT0)))
(let ((.def_251 (or .def_40 .def_250)))
(let ((.def_253 (and .def_251 .def_252)))
(let ((.def_245 (and .def_65 .def_244)))
(let ((.def_239 (not b.EVENT.0__AT1)))
(let ((.def_237 (not b.EVENT.1__AT1)))
(let ((.def_240 (or .def_237 .def_239)))
(let ((.def_9 (not b.counter.0__AT1)))
(let ((.def_6 (not b.counter.1__AT1)))
(let ((.def_230 (or .def_6 .def_9)))
(let ((.def_234 (or b.counter.3__AT1 .def_230)))
(let ((.def_231 (or b.counter.2__AT1 .def_230)))
(let ((.def_4 (not b.counter.2__AT1)))
(let ((.def_229 (or .def_4 .def_9)))
(let ((.def_232 (and .def_229 .def_231)))
(let ((.def_14 (not b.counter.3__AT1)))
(let ((.def_233 (or .def_14 .def_232)))
(let ((.def_235 (and .def_233 .def_234)))
(let ((.def_241 (and .def_235 .def_240)))
(let ((.def_246 (and .def_241 .def_245)))
(let ((.def_224 (<= 0.0 b.delta__AT0)))
(let ((.def_53 (not b.EVENT.0__AT0)))
(let ((.def_51 (not b.EVENT.1__AT0)))
(let ((.def_100 (and .def_51 .def_53)))
(let ((.def_102 (not .def_100)))
(let ((.def_225 (or .def_102 .def_224)))
(let ((.def_226 (or b.EVENT.1__AT0 .def_225)))
(let ((.def_138 (= b.bool_atom__AT0 b.bool_atom__AT1)))
(let ((.def_133 (= b.counter.0__AT1 b.counter.0__AT0)))
(let ((.def_131 (= b.counter.1__AT1 b.counter.1__AT0)))
(let ((.def_129 (= b.counter.2__AT1 b.counter.2__AT0)))
(let ((.def_128 (= b.counter.3__AT1 b.counter.3__AT0)))
(let ((.def_130 (and .def_128 .def_129)))
(let ((.def_132 (and .def_130 .def_131)))
(let ((.def_134 (and .def_132 .def_133)))
(let ((.def_220 (and .def_134 .def_138)))
(let ((.def_221 (or .def_102 .def_220)))
(let ((.def_222 (or b.EVENT.1__AT0 .def_221)))
(let ((.def_209 (* b.delta__AT0 .def_72)))
(let ((.def_210 (* (- 1.0) b.speed_y__AT1)))
(let ((.def_213 (+ .def_210 .def_209)))
(let ((.def_214 (+ b.speed_y__AT0 .def_213)))
(let ((.def_215 (= .def_214 0.0 )))
(let ((.def_201 (* (- 1.0) b.y__AT1)))
(let ((.def_78 (* b.delta__AT0 b.speed_y__AT0)))
(let ((.def_204 (+ .def_78 .def_201)))
(let ((.def_71 (* b.delta__AT0 b.delta__AT0)))
(let ((.def_76 (* .def_71 .def_75)))
(let ((.def_205 (+ .def_76 .def_204)))
(let ((.def_206 (+ b.y__AT0 .def_205)))
(let ((.def_207 (= .def_206 0.0 )))
(let ((.def_120 (= b.x__AT0 b.x__AT1)))
(let ((.def_208 (and .def_120 .def_207)))
(let ((.def_216 (and .def_208 .def_215)))
(let ((.def_217 (or .def_102 .def_216)))
(let ((.def_123 (= b.y__AT0 b.y__AT1)))
(let ((.def_196 (and .def_120 .def_123)))
(let ((.def_126 (= b.speed_y__AT0 b.speed_y__AT1)))
(let ((.def_197 (and .def_126 .def_196)))
(let ((.def_193 (= b.delta__AT0 0.0 )))
(let ((.def_194 (and .def_100 .def_193)))
(let ((.def_195 (not .def_194)))
(let ((.def_198 (or .def_195 .def_197)))
(let ((.def_199 (or b.EVENT.1__AT0 .def_198)))
(let ((.def_186 (and .def_126 .def_134)))
(let ((.def_187 (or b.bool_atom__AT0 .def_186)))
(let ((.def_162 (or .def_9 b.counter.0__AT0)))
(let ((.def_161 (or b.counter.0__AT1 .def_34)))
(let ((.def_163 (and .def_161 .def_162)))
(let ((.def_164 (and .def_6 .def_163)))
(let ((.def_165 (or b.counter.1__AT0 .def_164)))
(let ((.def_160 (or b.counter.1__AT1 .def_32)))
(let ((.def_166 (and .def_160 .def_165)))
(let ((.def_177 (and .def_4 .def_166)))
(let ((.def_178 (or b.counter.2__AT0 .def_177)))
(let ((.def_172 (and .def_6 .def_34)))
(let ((.def_173 (or b.counter.1__AT0 .def_172)))
(let ((.def_174 (and .def_160 .def_173)))
(let ((.def_175 (and b.counter.2__AT1 .def_174)))
(let ((.def_176 (or .def_37 .def_175)))
(let ((.def_179 (and .def_176 .def_178)))
(let ((.def_180 (and b.counter.3__AT1 .def_179)))
(let ((.def_181 (or b.counter.3__AT0 .def_180)))
(let ((.def_167 (and b.counter.2__AT1 .def_166)))
(let ((.def_168 (or b.counter.2__AT0 .def_167)))
(let ((.def_156 (or b.counter.1__AT1 b.counter.1__AT0)))
(let ((.def_154 (and .def_6 b.counter.0__AT1)))
(let ((.def_155 (or .def_32 .def_154)))
(let ((.def_157 (and .def_155 .def_156)))
(let ((.def_158 (and .def_4 .def_157)))
(let ((.def_159 (or .def_37 .def_158)))
(let ((.def_169 (and .def_159 .def_168)))
(let ((.def_170 (and .def_14 .def_169)))
(let ((.def_171 (or .def_40 .def_170)))
(let ((.def_182 (and .def_171 .def_181)))
(let ((.def_151 (* b.speed_y__AT0 b.speed_y__AT0)))
(let ((.def_150 (* b.speed_y__AT1 b.speed_y__AT1)))
(let ((.def_152 (= .def_150 .def_151)))
(let ((.def_148 (+ b.speed_y__AT0 b.speed_y__AT1)))
(let ((.def_149 (= .def_148 0.0 )))
(let ((.def_153 (and .def_149 .def_152)))
(let ((.def_183 (and .def_153 .def_182)))
(let ((.def_147 (not b.bool_atom__AT0)))
(let ((.def_184 (or .def_147 .def_183)))
(let ((.def_87 (<= 0.0 b.speed_y__AT0)))
(let ((.def_144 (not .def_87)))
(let ((.def_58 (* (- 1.0) b.x__AT0)))
(let ((.def_59 (* b.x__AT0 .def_58)))
(let ((.def_143 (= b.y__AT0 .def_59)))
(let ((.def_145 (and .def_143 .def_144)))
(let ((.def_146 (= b.bool_atom__AT0 .def_145)))
(let ((.def_185 (and .def_146 .def_184)))
(let ((.def_188 (and .def_185 .def_187)))
(let ((.def_189 (and .def_120 .def_188)))
(let ((.def_190 (and .def_123 .def_189)))
(let ((.def_191 (or .def_100 .def_190)))
(let ((.def_192 (or b.EVENT.1__AT0 .def_191)))
(let ((.def_200 (and .def_192 .def_199)))
(let ((.def_218 (and .def_200 .def_217)))
(let ((.def_107 (= b.time__AT0 b.time__AT1)))
(let ((.def_121 (and .def_107 .def_120)))
(let ((.def_124 (and .def_121 .def_123)))
(let ((.def_127 (and .def_124 .def_126)))
(let ((.def_135 (and .def_127 .def_134)))
(let ((.def_139 (and .def_135 .def_138)))
(let ((.def_140 (or .def_51 .def_139)))
(let ((.def_110 (* (- 1.0) b.time__AT1)))
(let ((.def_113 (+ b.delta__AT0 .def_110)))
(let ((.def_114 (+ b.time__AT0 .def_113)))
(let ((.def_115 (= .def_114 0.0 )))
(let ((.def_116 (or .def_102 .def_115)))
(let ((.def_117 (or b.EVENT.1__AT0 .def_116)))
(let ((.def_108 (or .def_100 .def_107)))
(let ((.def_109 (or b.EVENT.1__AT0 .def_108)))
(let ((.def_118 (and .def_109 .def_117)))
(let ((.def_141 (and .def_118 .def_140)))
(let ((.def_104 (= .def_102 b.event_is_timed__AT1)))
(let ((.def_101 (= b.event_is_timed__AT0 .def_100)))
(let ((.def_105 (and .def_101 .def_104)))
(let ((.def_142 (and .def_105 .def_141)))
(let ((.def_219 (and .def_142 .def_218)))
(let ((.def_223 (and .def_219 .def_222)))
(let ((.def_227 (and .def_223 .def_226)))
(let ((.def_228 (and .def_51 .def_227)))
(let ((.def_247 (and .def_228 .def_246)))
(let ((.def_254 (and .def_247 .def_253)))
(let ((.def_89 (* b.delta__AT0 .def_88)))
(let ((.def_90 (+ b.speed_y__AT0 .def_89)))
(let ((.def_94 (<= .def_90 0.0 )))
(let ((.def_93 (<= b.speed_y__AT0 0.0 )))
(let ((.def_95 (and .def_93 .def_94)))
(let ((.def_91 (<= 0.0 .def_90)))
(let ((.def_92 (and .def_87 .def_91)))
(let ((.def_96 (or .def_92 .def_95)))
(let ((.def_79 (+ .def_76 .def_78)))
(let ((.def_80 (* (- 1.0) .def_59)))
(let ((.def_83 (+ .def_80 .def_79)))
(let ((.def_84 (+ b.y__AT0 .def_83)))
(let ((.def_85 (<= 0.0 .def_84)))
(let ((.def_60 (<= .def_59 b.y__AT0)))
(let ((.def_86 (and .def_60 .def_85)))
(let ((.def_97 (and .def_86 .def_96)))
(let ((.def_98 (and .def_65 .def_97)))
(let ((.def_66 (and .def_60 .def_65)))
(let ((.def_54 (or .def_51 .def_53)))
(let ((.def_44 (or .def_32 .def_34)))
(let ((.def_48 (or b.counter.3__AT0 .def_44)))
(let ((.def_45 (or b.counter.2__AT0 .def_44)))
(let ((.def_43 (or .def_34 .def_37)))
(let ((.def_46 (and .def_43 .def_45)))
(let ((.def_47 (or .def_40 .def_46)))
(let ((.def_49 (and .def_47 .def_48)))
(let ((.def_55 (and .def_49 .def_54)))
(let ((.def_67 (and .def_55 .def_66)))
(let ((.def_38 (and .def_35 .def_37)))
(let ((.def_41 (and .def_38 .def_40)))
(let ((.def_29 (= b.y__AT0 10.0 )))
(let ((.def_25 (= b.x__AT0 0.0 )))
(let ((.def_21 (= b.time__AT0 0.0 )))
(let ((.def_23 (and .def_21 b.event_is_timed__AT0)))
(let ((.def_26 (and .def_23 .def_25)))
(let ((.def_30 (and .def_26 .def_29)))
(let ((.def_42 (and .def_30 .def_41)))
(let ((.def_68 (and .def_42 .def_67)))
(let ((.def_10 (and .def_6 .def_9)))
(let ((.def_16 (or .def_10 b.counter.3__AT1)))
(let ((.def_11 (or b.counter.2__AT1 .def_10)))
(let ((.def_7 (or .def_4 .def_6)))
(let ((.def_12 (and .def_7 .def_11)))
(let ((.def_15 (or .def_12 .def_14)))
(let ((.def_17 (and .def_15 .def_16)))
(let ((.def_18 (not .def_17)))
(let ((.def_69 (and .def_18 .def_68)))
(let ((.def_99 (and .def_69 .def_98)))
(let ((.def_255 (and .def_99 .def_254)))
(let ((.def_279 (and .def_255 .def_278)))
.def_279))))))))))))))))))))))))))))))))))))))))))))))))))))))))))))))))))))))))))))))))))))))))))))))))))))))))))))))))))))))))))))))))))))))))))))))))))))))))))))))))))))))))))))))))))))))))))))))))))))))))))))))))))))))))))))))))))))))))))
(check-sat)
(exit)
